n_boats=38;
n_periods=13;
capacity=[7,29,28,18,16,33,32,10,22,15,16,24,12,14,9,15,15,9,11,29,39,24,33,5,23,26,38,35,19,28,35,35,17,25,37,6,33,5];
crew=[3,6,10,10,9,7,13,2,6,9,3,12,4,7,2,8,7,1,3,12,12,10,18,2,6,8,19,11,11,5,20,20,6,5,17,3,17,1];
